units real
atom_style full
boundary p p p

read_data data.lj3000
